; benchmark generated from python API
(set-info :status unknown)
(declare-fun strlen_72_64 () (_ BitVec 64))
(declare-fun args_0_8 () (_ BitVec 8))
(declare-fun strlen_75_64 () (_ BitVec 64))
(declare-fun args_1_8 () (_ BitVec 8))
(declare-fun sigaction_oldact_171_1216 () (_ BitVec 1216))
(declare-fun sigaction_oldact_175_1216 () (_ BitVec 1216))
(declare-fun sigaction_oldact_185_1216 () (_ BitVec 1216))
(declare-fun sigaction_oldact_201_1216 () (_ BitVec 1216))
(declare-fun sigaction_oldact_229_1216 () (_ BitVec 1216))
(declare-fun sigaction_oldact_283_1216 () (_ BitVec 1216))
(declare-fun sigaction_oldact_400_1216 () (_ BitVec 1216))
(declare-fun sigaction_oldact_606_1216 () (_ BitVec 1216))
(declare-fun sigaction_oldact_1069_1216 () (_ BitVec 1216))
(declare-fun sigaction_oldact_2030_1216 () (_ BitVec 1216))
(assert
 (let (($x351 (= (_ bv1 64) strlen_72_64)))
 (not $x351)))
(assert
 (let ((?x82 (bvadd (_ bv576460752303357824 64) strlen_72_64)))
 (let (($x69 (= (_ bv0 8) args_0_8)))
 (let ((?x46 (ite $x69 (_ bv576460752303357824 64) (_ bv576460752303357825 64))))
 (= ?x46 ?x82)))))
(assert
 (let (($x347 (= (_ bv0 8) args_1_8)))
 (let ((?x355 (ite $x347 (_ bv576460752303357826 64) (_ bv576460752303357827 64))))
 (let ((?x356 (bvsub ?x355 (_ bv576460752303357826 64))))
 (= ?x356 strlen_75_64)))))
(assert
 (let ((?x1831 ((_ extract 127 120) sigaction_oldact_171_1216)))
 (let ((?x2319 (bvand ?x1831 (_ bv4 8))))
 (= (_ bv0 8) ?x2319))))
(assert
 (let ((?x2264 ((_ extract 127 120) sigaction_oldact_175_1216)))
 (let ((?x2349 (bvand ?x2264 (_ bv4 8))))
 (and (distinct (_ bv0 8) ?x2349) true))))
(assert
 (let ((?x2741 ((_ extract 127 120) sigaction_oldact_185_1216)))
 (let ((?x2766 (bvand ?x2741 (_ bv4 8))))
 (and (distinct (_ bv0 8) ?x2766) true))))
(assert
 (let ((?x3722 ((_ extract 127 120) sigaction_oldact_201_1216)))
 (let ((?x3747 (bvand ?x3722 (_ bv4 8))))
 (= (_ bv0 8) ?x3747))))
(assert
 (let ((?x5561 ((_ extract 127 120) sigaction_oldact_229_1216)))
 (let ((?x5578 (bvand ?x5561 (_ bv4 8))))
 (= (_ bv0 8) ?x5578))))
(assert
 (let ((?x9010 ((_ extract 127 120) sigaction_oldact_283_1216)))
 (let ((?x9035 (bvand ?x9010 (_ bv4 8))))
 (and (distinct (_ bv0 8) ?x9035) true))))
(assert
 (let ((?x17105 ((_ extract 127 120) sigaction_oldact_400_1216)))
 (let ((?x17130 (bvand ?x17105 (_ bv4 8))))
 (= (_ bv0 8) ?x17130))))
(assert
 (let ((?x31934 ((_ extract 127 120) sigaction_oldact_606_1216)))
 (let ((?x31959 (bvand ?x31934 (_ bv4 8))))
 (and (distinct (_ bv0 8) ?x31959) true))))
(assert
 (let ((?x18674 ((_ extract 127 120) sigaction_oldact_1069_1216)))
 (let ((?x18910 (bvand ?x18674 (_ bv4 8))))
 (and (distinct (_ bv0 8) ?x18910) true))))
(assert
 (let ((?x115913 ((_ extract 127 120) sigaction_oldact_2030_1216)))
 (let ((?x115936 (bvand ?x115913 (_ bv4 8))))
 (= (_ bv0 8) ?x115936))))
(maximize sigaction_oldact_400_1216)
(minimize sigaction_oldact_1069_1216)
(minimize sigaction_oldact_2030_1216)
(maximize sigaction_oldact_175_1216)
(minimize strlen_75_64)
(minimize sigaction_oldact_185_1216)
(minimize sigaction_oldact_229_1216)
(minimize sigaction_oldact_201_1216)
(maximize sigaction_oldact_171_1216)
(minimize args_0_8)
(minimize sigaction_oldact_283_1216)
(maximize sigaction_oldact_606_1216)
(minimize sigaction_oldact_175_1216)
(maximize sigaction_oldact_229_1216)
(maximize strlen_72_64)
(minimize sigaction_oldact_606_1216)
(maximize strlen_75_64)
(minimize sigaction_oldact_400_1216)
(minimize args_1_8)
(maximize sigaction_oldact_2030_1216)
(check-sat)
(get-objectives)
